4 
5  56 
6  13 26 41 54 
7  07 22 37 52 
8  07 22 37 52 
9  07 22 37 52 
10  07 24 39 54 
11  09 24 39 54 
12  09 24 39 54 
13  09 24 39 54 
14  09 24 39 54 
15  09 24 39 54 
16  09 24 39 54 
17  09 24 39 54 
18  09 24 39 54 
19  09 24 39 54 
20  09 24 39 54 
21  09 24 39 54 
22  09 24 41 56 
23  11 22 35 
0 
